(set-logic QF_LIA)
(set-info :ran/ran2.smt2)
(set-info :smt-lib-version 2.0)
(declare-fun x1 () Int)
(declare-fun x2 () Int)
(declare-fun x3 () Int)
(assert (<= (+ (* (- 4) x1) (* 7 x2) (* 5 x3) ) 96))
(assert (<= (+ (* (- 10) x1) (* 8 x2) (* 1 x3) ) (- 131)))
(assert (<= (+ (* 3 x1) (* (- 3) x2) (* 3 x3) ) 36))
(assert (<= (+ (* 6 x1) (* (- 8) x2) (* 7 x3) ) 53))
(assert (<= (+ (* 3 x1) (* (- 10) x2) (* 9 x3) ) (- 101)))
(assert (<= (+ (* 7 x1) (* (- 5) x2) (* 10 x3) ) (- 30)))
(assert (<= (+ (* 1 x1) (* 0 x2) (* 0 x3) ) 158))
(assert (<= (+ (* (- 1) x1) (* 0 x2) (* 0 x3) ) 158))
(assert (<= (+ (* 0 x1) (* 1 x2) (* 0 x3) ) 158))
(assert (<= (+ (* 0 x1) (* (- 1) x2) (* 0 x3) ) 158))
(assert (<= (+ (* 0 x1) (* 0 x2) (* 1 x3) ) 158))
(assert (<= (+ (* 0 x1) (* 0 x2) (* (- 1) x3) ) 158))
